% Generated by MiniZinc 2.9.4
% Solver library: /MiniZinc/share/minizinc/gecode
% Command line invocation: minizinc /workspace/benchmark_quad.mzn --fzn /workspace/bchm_quad.fzn -D n=12; 

array [1..12] of float: X_INTRODUCED_79_ = [1.0,1.0,1.0,1.0,1.0,1.0,1.0,1.0,1.0,1.0,1.0,1.0];
array [1..2] of float: X_INTRODUCED_82_ = [1.0,-10.0];
array [1..2] of float: X_INTRODUCED_96_ = [-1.0,-10.0];
array [1..12] of int: X_INTRODUCED_109_ = [1,1,1,1,1,1,1,1,1,1,1,1];
var -10.0..10.0: X_INTRODUCED_0_;
var -10.0..10.0: X_INTRODUCED_1_;
var -10.0..10.0: X_INTRODUCED_2_;
var -10.0..10.0: X_INTRODUCED_3_;
var -10.0..10.0: X_INTRODUCED_4_;
var -10.0..10.0: X_INTRODUCED_5_;
var -10.0..10.0: X_INTRODUCED_6_;
var -10.0..10.0: X_INTRODUCED_7_;
var -10.0..10.0: X_INTRODUCED_8_;
var -10.0..10.0: X_INTRODUCED_9_;
var -10.0..10.0: X_INTRODUCED_10_;
var -10.0..10.0: X_INTRODUCED_11_;
var 0..1: X_INTRODUCED_12_;
var 0..1: X_INTRODUCED_13_;
var 0..1: X_INTRODUCED_14_;
var 0..1: X_INTRODUCED_15_;
var 0..1: X_INTRODUCED_16_;
var 0..1: X_INTRODUCED_17_;
var 0..1: X_INTRODUCED_18_;
var 0..1: X_INTRODUCED_19_;
var 0..1: X_INTRODUCED_20_;
var 0..1: X_INTRODUCED_21_;
var 0..1: X_INTRODUCED_22_;
var 0..1: X_INTRODUCED_23_;
var -1220.0..1220.0: obj:: is_defined_var:: output_var;
var 0.0..1.0: X_INTRODUCED_24_ ::var_is_introduced :: is_defined_var;
var -10.0..10.0: X_INTRODUCED_25_ ::var_is_introduced :: is_defined_var;
var 0.0..1.0: X_INTRODUCED_26_ ::var_is_introduced :: is_defined_var;
var -10.0..10.0: X_INTRODUCED_27_ ::var_is_introduced :: is_defined_var;
var 0.0..1.0: X_INTRODUCED_28_ ::var_is_introduced :: is_defined_var;
var -10.0..10.0: X_INTRODUCED_29_ ::var_is_introduced :: is_defined_var;
var 0.0..1.0: X_INTRODUCED_30_ ::var_is_introduced :: is_defined_var;
var -10.0..10.0: X_INTRODUCED_31_ ::var_is_introduced :: is_defined_var;
var 0.0..1.0: X_INTRODUCED_32_ ::var_is_introduced :: is_defined_var;
var -10.0..10.0: X_INTRODUCED_33_ ::var_is_introduced :: is_defined_var;
var 0.0..1.0: X_INTRODUCED_34_ ::var_is_introduced :: is_defined_var;
var -10.0..10.0: X_INTRODUCED_35_ ::var_is_introduced :: is_defined_var;
var 0.0..1.0: X_INTRODUCED_36_ ::var_is_introduced :: is_defined_var;
var -10.0..10.0: X_INTRODUCED_37_ ::var_is_introduced :: is_defined_var;
var 0.0..1.0: X_INTRODUCED_38_ ::var_is_introduced :: is_defined_var;
var -10.0..10.0: X_INTRODUCED_39_ ::var_is_introduced :: is_defined_var;
var 0.0..1.0: X_INTRODUCED_40_ ::var_is_introduced :: is_defined_var;
var -10.0..10.0: X_INTRODUCED_41_ ::var_is_introduced :: is_defined_var;
var 0.0..1.0: X_INTRODUCED_42_ ::var_is_introduced :: is_defined_var;
var -10.0..10.0: X_INTRODUCED_43_ ::var_is_introduced :: is_defined_var;
var 0.0..1.0: X_INTRODUCED_44_ ::var_is_introduced :: is_defined_var;
var -10.0..10.0: X_INTRODUCED_45_ ::var_is_introduced :: is_defined_var;
var 0.0..1.0: X_INTRODUCED_46_ ::var_is_introduced :: is_defined_var;
var -10.0..10.0: X_INTRODUCED_47_ ::var_is_introduced :: is_defined_var;
var -100.0..100.0: X_INTRODUCED_50_ ::var_is_introduced :: is_defined_var;
var -100.0..100.0: X_INTRODUCED_51_ ::var_is_introduced :: is_defined_var;
var -100.0..100.0: X_INTRODUCED_52_ ::var_is_introduced :: is_defined_var;
var -100.0..100.0: X_INTRODUCED_53_ ::var_is_introduced :: is_defined_var;
var -100.0..100.0: X_INTRODUCED_54_ ::var_is_introduced :: is_defined_var;
var -100.0..100.0: X_INTRODUCED_55_ ::var_is_introduced :: is_defined_var;
var -100.0..100.0: X_INTRODUCED_56_ ::var_is_introduced :: is_defined_var;
var -100.0..100.0: X_INTRODUCED_57_ ::var_is_introduced :: is_defined_var;
var -100.0..100.0: X_INTRODUCED_58_ ::var_is_introduced :: is_defined_var;
var -100.0..100.0: X_INTRODUCED_59_ ::var_is_introduced :: is_defined_var;
var -100.0..100.0: X_INTRODUCED_60_ ::var_is_introduced :: is_defined_var;
var -100.0..100.0: X_INTRODUCED_65_ ::var_is_introduced :: is_defined_var;
var -100.0..100.0: X_INTRODUCED_66_ ::var_is_introduced :: is_defined_var;
var -100.0..100.0: X_INTRODUCED_67_ ::var_is_introduced :: is_defined_var;
var -100.0..100.0: X_INTRODUCED_68_ ::var_is_introduced :: is_defined_var;
var -100.0..100.0: X_INTRODUCED_69_ ::var_is_introduced :: is_defined_var;
var -100.0..100.0: X_INTRODUCED_70_ ::var_is_introduced :: is_defined_var;
var -100.0..100.0: X_INTRODUCED_71_ ::var_is_introduced :: is_defined_var;
var -100.0..100.0: X_INTRODUCED_72_ ::var_is_introduced :: is_defined_var;
var -100.0..100.0: X_INTRODUCED_73_ ::var_is_introduced :: is_defined_var;
var -100.0..100.0: X_INTRODUCED_74_ ::var_is_introduced :: is_defined_var;
var -100.0..100.0: X_INTRODUCED_75_ ::var_is_introduced :: is_defined_var;
var -100.0..100.0: X_INTRODUCED_76_ ::var_is_introduced :: is_defined_var;
array [1..12] of var int: z = [X_INTRODUCED_12_,X_INTRODUCED_13_,X_INTRODUCED_14_,X_INTRODUCED_15_,X_INTRODUCED_16_,X_INTRODUCED_17_,X_INTRODUCED_18_,X_INTRODUCED_19_,X_INTRODUCED_20_,X_INTRODUCED_21_,X_INTRODUCED_22_,X_INTRODUCED_23_];
array [1..12] of var float: X_INTRODUCED_77_ ::var_is_introduced  = [X_INTRODUCED_65_,X_INTRODUCED_66_,X_INTRODUCED_67_,X_INTRODUCED_68_,X_INTRODUCED_69_,X_INTRODUCED_70_,X_INTRODUCED_71_,X_INTRODUCED_72_,X_INTRODUCED_73_,X_INTRODUCED_74_,X_INTRODUCED_75_,X_INTRODUCED_76_];
constraint float_lin_le(X_INTRODUCED_79_,X_INTRODUCED_77_,150.0);
constraint float_lin_le(X_INTRODUCED_82_,[X_INTRODUCED_0_,X_INTRODUCED_46_],-0.0);
constraint float_lin_le(X_INTRODUCED_82_,[X_INTRODUCED_1_,X_INTRODUCED_44_],-0.0);
constraint float_lin_le(X_INTRODUCED_82_,[X_INTRODUCED_2_,X_INTRODUCED_42_],-0.0);
constraint float_lin_le(X_INTRODUCED_82_,[X_INTRODUCED_3_,X_INTRODUCED_40_],-0.0);
constraint float_lin_le(X_INTRODUCED_82_,[X_INTRODUCED_4_,X_INTRODUCED_38_],-0.0);
constraint float_lin_le(X_INTRODUCED_82_,[X_INTRODUCED_5_,X_INTRODUCED_36_],-0.0);
constraint float_lin_le(X_INTRODUCED_82_,[X_INTRODUCED_6_,X_INTRODUCED_34_],-0.0);
constraint float_lin_le(X_INTRODUCED_82_,[X_INTRODUCED_7_,X_INTRODUCED_32_],-0.0);
constraint float_lin_le(X_INTRODUCED_82_,[X_INTRODUCED_8_,X_INTRODUCED_30_],-0.0);
constraint float_lin_le(X_INTRODUCED_82_,[X_INTRODUCED_9_,X_INTRODUCED_28_],-0.0);
constraint float_lin_le(X_INTRODUCED_82_,[X_INTRODUCED_10_,X_INTRODUCED_26_],-0.0);
constraint float_lin_le(X_INTRODUCED_82_,[X_INTRODUCED_11_,X_INTRODUCED_24_],-0.0);
constraint float_lin_le(X_INTRODUCED_96_,[X_INTRODUCED_0_,X_INTRODUCED_46_],0.0);
constraint float_lin_le(X_INTRODUCED_96_,[X_INTRODUCED_1_,X_INTRODUCED_44_],0.0);
constraint float_lin_le(X_INTRODUCED_96_,[X_INTRODUCED_2_,X_INTRODUCED_42_],0.0);
constraint float_lin_le(X_INTRODUCED_96_,[X_INTRODUCED_3_,X_INTRODUCED_40_],0.0);
constraint float_lin_le(X_INTRODUCED_96_,[X_INTRODUCED_4_,X_INTRODUCED_38_],0.0);
constraint float_lin_le(X_INTRODUCED_96_,[X_INTRODUCED_5_,X_INTRODUCED_36_],0.0);
constraint float_lin_le(X_INTRODUCED_96_,[X_INTRODUCED_6_,X_INTRODUCED_34_],0.0);
constraint float_lin_le(X_INTRODUCED_96_,[X_INTRODUCED_7_,X_INTRODUCED_32_],0.0);
constraint float_lin_le(X_INTRODUCED_96_,[X_INTRODUCED_8_,X_INTRODUCED_30_],0.0);
constraint float_lin_le(X_INTRODUCED_96_,[X_INTRODUCED_9_,X_INTRODUCED_28_],0.0);
constraint float_lin_le(X_INTRODUCED_96_,[X_INTRODUCED_10_,X_INTRODUCED_26_],0.0);
constraint float_lin_le(X_INTRODUCED_96_,[X_INTRODUCED_11_,X_INTRODUCED_24_],0.0);
constraint int_lin_le(X_INTRODUCED_109_,z,6);
constraint float_lin_eq([1.0,1.0,1.0,1.0,1.0,1.0,1.0,1.0,1.0,1.0,1.0,1.0,1.0,1.0,1.0,1.0,1.0,1.0,1.0,1.0,1.0,1.0,1.0,-1.0],[X_INTRODUCED_50_,X_INTRODUCED_51_,X_INTRODUCED_52_,X_INTRODUCED_53_,X_INTRODUCED_54_,X_INTRODUCED_55_,X_INTRODUCED_56_,X_INTRODUCED_57_,X_INTRODUCED_58_,X_INTRODUCED_59_,X_INTRODUCED_60_,X_INTRODUCED_25_,X_INTRODUCED_27_,X_INTRODUCED_29_,X_INTRODUCED_31_,X_INTRODUCED_33_,X_INTRODUCED_35_,X_INTRODUCED_37_,X_INTRODUCED_39_,X_INTRODUCED_41_,X_INTRODUCED_43_,X_INTRODUCED_45_,X_INTRODUCED_47_,obj],-0.0):: defines_var(obj);
constraint int2float(X_INTRODUCED_23_,X_INTRODUCED_24_):: defines_var(X_INTRODUCED_24_);
constraint float_times(X_INTRODUCED_0_,X_INTRODUCED_24_,X_INTRODUCED_25_):: defines_var(X_INTRODUCED_25_);
constraint int2float(X_INTRODUCED_22_,X_INTRODUCED_26_):: defines_var(X_INTRODUCED_26_);
constraint float_times(X_INTRODUCED_1_,X_INTRODUCED_26_,X_INTRODUCED_27_):: defines_var(X_INTRODUCED_27_);
constraint int2float(X_INTRODUCED_21_,X_INTRODUCED_28_):: defines_var(X_INTRODUCED_28_);
constraint float_times(X_INTRODUCED_2_,X_INTRODUCED_28_,X_INTRODUCED_29_):: defines_var(X_INTRODUCED_29_);
constraint int2float(X_INTRODUCED_20_,X_INTRODUCED_30_):: defines_var(X_INTRODUCED_30_);
constraint float_times(X_INTRODUCED_3_,X_INTRODUCED_30_,X_INTRODUCED_31_):: defines_var(X_INTRODUCED_31_);
constraint int2float(X_INTRODUCED_19_,X_INTRODUCED_32_):: defines_var(X_INTRODUCED_32_);
constraint float_times(X_INTRODUCED_4_,X_INTRODUCED_32_,X_INTRODUCED_33_):: defines_var(X_INTRODUCED_33_);
constraint int2float(X_INTRODUCED_18_,X_INTRODUCED_34_):: defines_var(X_INTRODUCED_34_);
constraint float_times(X_INTRODUCED_5_,X_INTRODUCED_34_,X_INTRODUCED_35_):: defines_var(X_INTRODUCED_35_);
constraint int2float(X_INTRODUCED_17_,X_INTRODUCED_36_):: defines_var(X_INTRODUCED_36_);
constraint float_times(X_INTRODUCED_6_,X_INTRODUCED_36_,X_INTRODUCED_37_):: defines_var(X_INTRODUCED_37_);
constraint int2float(X_INTRODUCED_16_,X_INTRODUCED_38_):: defines_var(X_INTRODUCED_38_);
constraint float_times(X_INTRODUCED_7_,X_INTRODUCED_38_,X_INTRODUCED_39_):: defines_var(X_INTRODUCED_39_);
constraint int2float(X_INTRODUCED_15_,X_INTRODUCED_40_):: defines_var(X_INTRODUCED_40_);
constraint float_times(X_INTRODUCED_8_,X_INTRODUCED_40_,X_INTRODUCED_41_):: defines_var(X_INTRODUCED_41_);
constraint int2float(X_INTRODUCED_14_,X_INTRODUCED_42_):: defines_var(X_INTRODUCED_42_);
constraint float_times(X_INTRODUCED_9_,X_INTRODUCED_42_,X_INTRODUCED_43_):: defines_var(X_INTRODUCED_43_);
constraint int2float(X_INTRODUCED_13_,X_INTRODUCED_44_):: defines_var(X_INTRODUCED_44_);
constraint float_times(X_INTRODUCED_10_,X_INTRODUCED_44_,X_INTRODUCED_45_):: defines_var(X_INTRODUCED_45_);
constraint int2float(X_INTRODUCED_12_,X_INTRODUCED_46_):: defines_var(X_INTRODUCED_46_);
constraint float_times(X_INTRODUCED_11_,X_INTRODUCED_46_,X_INTRODUCED_47_):: defines_var(X_INTRODUCED_47_);
constraint float_times(X_INTRODUCED_0_,X_INTRODUCED_1_,X_INTRODUCED_50_):: defines_var(X_INTRODUCED_50_);
constraint float_times(X_INTRODUCED_1_,X_INTRODUCED_2_,X_INTRODUCED_51_):: defines_var(X_INTRODUCED_51_);
constraint float_times(X_INTRODUCED_2_,X_INTRODUCED_3_,X_INTRODUCED_52_):: defines_var(X_INTRODUCED_52_);
constraint float_times(X_INTRODUCED_3_,X_INTRODUCED_4_,X_INTRODUCED_53_):: defines_var(X_INTRODUCED_53_);
constraint float_times(X_INTRODUCED_4_,X_INTRODUCED_5_,X_INTRODUCED_54_):: defines_var(X_INTRODUCED_54_);
constraint float_times(X_INTRODUCED_5_,X_INTRODUCED_6_,X_INTRODUCED_55_):: defines_var(X_INTRODUCED_55_);
constraint float_times(X_INTRODUCED_6_,X_INTRODUCED_7_,X_INTRODUCED_56_):: defines_var(X_INTRODUCED_56_);
constraint float_times(X_INTRODUCED_7_,X_INTRODUCED_8_,X_INTRODUCED_57_):: defines_var(X_INTRODUCED_57_);
constraint float_times(X_INTRODUCED_8_,X_INTRODUCED_9_,X_INTRODUCED_58_):: defines_var(X_INTRODUCED_58_);
constraint float_times(X_INTRODUCED_9_,X_INTRODUCED_10_,X_INTRODUCED_59_):: defines_var(X_INTRODUCED_59_);
constraint float_times(X_INTRODUCED_10_,X_INTRODUCED_11_,X_INTRODUCED_60_):: defines_var(X_INTRODUCED_60_);
constraint float_times(X_INTRODUCED_0_,X_INTRODUCED_0_,X_INTRODUCED_65_):: defines_var(X_INTRODUCED_65_);
constraint float_times(X_INTRODUCED_1_,X_INTRODUCED_1_,X_INTRODUCED_66_):: defines_var(X_INTRODUCED_66_);
constraint float_times(X_INTRODUCED_2_,X_INTRODUCED_2_,X_INTRODUCED_67_):: defines_var(X_INTRODUCED_67_);
constraint float_times(X_INTRODUCED_3_,X_INTRODUCED_3_,X_INTRODUCED_68_):: defines_var(X_INTRODUCED_68_);
constraint float_times(X_INTRODUCED_4_,X_INTRODUCED_4_,X_INTRODUCED_69_):: defines_var(X_INTRODUCED_69_);
constraint float_times(X_INTRODUCED_5_,X_INTRODUCED_5_,X_INTRODUCED_70_):: defines_var(X_INTRODUCED_70_);
constraint float_times(X_INTRODUCED_6_,X_INTRODUCED_6_,X_INTRODUCED_71_):: defines_var(X_INTRODUCED_71_);
constraint float_times(X_INTRODUCED_7_,X_INTRODUCED_7_,X_INTRODUCED_72_):: defines_var(X_INTRODUCED_72_);
constraint float_times(X_INTRODUCED_8_,X_INTRODUCED_8_,X_INTRODUCED_73_):: defines_var(X_INTRODUCED_73_);
constraint float_times(X_INTRODUCED_9_,X_INTRODUCED_9_,X_INTRODUCED_74_):: defines_var(X_INTRODUCED_74_);
constraint float_times(X_INTRODUCED_10_,X_INTRODUCED_10_,X_INTRODUCED_75_):: defines_var(X_INTRODUCED_75_);
constraint float_times(X_INTRODUCED_11_,X_INTRODUCED_11_,X_INTRODUCED_76_):: defines_var(X_INTRODUCED_76_);
solve  maximize obj;
